webassembly/ejemplos_results/5/folder5_json_32.txt
value = 5;
fgas = [1, 1, 1, 1, 1];
fsize = [1, 1, 1, 1, 1];
states = 
[|   in_0, in_1, in_2, in_3, in_4, in_5, '.', '.', '.', '.', '.'
 |   in_1, in_2, in_3, in_4, in_5,  '.', '.', '.', '.', '.', '.'
 | 's(0)', in_2, in_3, in_4, in_5,  '.', '.', '.', '.', '.', '.'
 |   in_2, in_3, in_4, in_5,  '.',  '.', '.', '.', '.', '.', '.'
 |   in_4, in_5,  '.',  '.',  '.',  '.', '.', '.', '.', '.', '.'
 | 's(1)',  '.',  '.',  '.',  '.',  '.', '.', '.', '.', '.', '.'
 |];
register_states = 
[| local_0, local_1, '.', '.', '.', '.', '.'
 |    in_0, local_1, '.', '.', '.', '.', '.'
 |    in_0, local_1, '.', '.', '.', '.', '.'
 |    in_0,  's(0)', '.', '.', '.', '.', '.'
 |    in_0,  's(0)', '.', '.', '.', '.', '.'
 |    in_0,  's(0)', '.', '.', '.', '.', '.'
 |];
program = [S(SET1), O('i32.load8_u_1'), S(SET2), O('i32.store16_3'), O('i32.sub_0')];
% time elapsed: 0.07 s
----------
==========
% time elapsed: 0.07 s
% [value > 4]
